c File: flat50_3_0.col
c
c SOURCE: Joseph Culberson (joe@cs.ualberta.ca)
c DESCRIPTION: Quasi-random coloring problem
c              generated with flatness = 0
c                             probability = 0.139
c                             known coloring = 3
c                             random seed = 1972
c              Creation Date:  Tue Jun  9 12:22:27 1998
c Maximum degree = 8 Minimum degree = 1
c p edge 50 115
c cnf created by edge2cnf
p cnf 150 545
-1 -2 0
-1 -3 0
-2 -3 0
1 2 3 0
-4 -5 0
-4 -6 0
-5 -6 0
4 5 6 0
-7 -8 0
-7 -9 0
-8 -9 0
7 8 9 0
-10 -11 0
-10 -12 0
-11 -12 0
10 11 12 0
-13 -14 0
-13 -15 0
-14 -15 0
13 14 15 0
-16 -17 0
-16 -18 0
-17 -18 0
16 17 18 0
-19 -20 0
-19 -21 0
-20 -21 0
19 20 21 0
-22 -23 0
-22 -24 0
-23 -24 0
22 23 24 0
-25 -26 0
-25 -27 0
-26 -27 0
25 26 27 0
-28 -29 0
-28 -30 0
-29 -30 0
28 29 30 0
-31 -32 0
-31 -33 0
-32 -33 0
31 32 33 0
-34 -35 0
-34 -36 0
-35 -36 0
34 35 36 0
-37 -38 0
-37 -39 0
-38 -39 0
37 38 39 0
-40 -41 0
-40 -42 0
-41 -42 0
40 41 42 0
-43 -44 0
-43 -45 0
-44 -45 0
43 44 45 0
-46 -47 0
-46 -48 0
-47 -48 0
46 47 48 0
-49 -50 0
-49 -51 0
-50 -51 0
49 50 51 0
-52 -53 0
-52 -54 0
-53 -54 0
52 53 54 0
-55 -56 0
-55 -57 0
-56 -57 0
55 56 57 0
-58 -59 0
-58 -60 0
-59 -60 0
58 59 60 0
-61 -62 0
-61 -63 0
-62 -63 0
61 62 63 0
-64 -65 0
-64 -66 0
-65 -66 0
64 65 66 0
-67 -68 0
-67 -69 0
-68 -69 0
67 68 69 0
-70 -71 0
-70 -72 0
-71 -72 0
70 71 72 0
-73 -74 0
-73 -75 0
-74 -75 0
73 74 75 0
-76 -77 0
-76 -78 0
-77 -78 0
76 77 78 0
-79 -80 0
-79 -81 0
-80 -81 0
79 80 81 0
-82 -83 0
-82 -84 0
-83 -84 0
82 83 84 0
-85 -86 0
-85 -87 0
-86 -87 0
85 86 87 0
-88 -89 0
-88 -90 0
-89 -90 0
88 89 90 0
-91 -92 0
-91 -93 0
-92 -93 0
91 92 93 0
-94 -95 0
-94 -96 0
-95 -96 0
94 95 96 0
-97 -98 0
-97 -99 0
-98 -99 0
97 98 99 0
-100 -101 0
-100 -102 0
-101 -102 0
100 101 102 0
-103 -104 0
-103 -105 0
-104 -105 0
103 104 105 0
-106 -107 0
-106 -108 0
-107 -108 0
106 107 108 0
-109 -110 0
-109 -111 0
-110 -111 0
109 110 111 0
-112 -113 0
-112 -114 0
-113 -114 0
112 113 114 0
-115 -116 0
-115 -117 0
-116 -117 0
115 116 117 0
-118 -119 0
-118 -120 0
-119 -120 0
118 119 120 0
-121 -122 0
-121 -123 0
-122 -123 0
121 122 123 0
-124 -125 0
-124 -126 0
-125 -126 0
124 125 126 0
-127 -128 0
-127 -129 0
-128 -129 0
127 128 129 0
-130 -131 0
-130 -132 0
-131 -132 0
130 131 132 0
-133 -134 0
-133 -135 0
-134 -135 0
133 134 135 0
-136 -137 0
-136 -138 0
-137 -138 0
136 137 138 0
-139 -140 0
-139 -141 0
-140 -141 0
139 140 141 0
-142 -143 0
-142 -144 0
-143 -144 0
142 143 144 0
-145 -146 0
-145 -147 0
-146 -147 0
145 146 147 0
-148 -149 0
-148 -150 0
-149 -150 0
148 149 150 0
-91 -1 0
-92 -2 0
-93 -3 0
-109 -1 0
-110 -2 0
-111 -3 0
-124 -1 0
-125 -2 0
-126 -3 0
-136 -1 0
-137 -2 0
-138 -3 0
-64 -4 0
-65 -5 0
-66 -6 0
-76 -4 0
-77 -5 0
-78 -6 0
-79 -7 0
-80 -8 0
-81 -9 0
-97 -7 0
-98 -8 0
-99 -9 0
-100 -7 0
-101 -8 0
-102 -9 0
-106 -7 0
-107 -8 0
-108 -9 0
-112 -7 0
-113 -8 0
-114 -9 0
-145 -7 0
-146 -8 0
-147 -9 0
-61 -10 0
-62 -11 0
-63 -12 0
-67 -10 0
-68 -11 0
-69 -12 0
-85 -10 0
-86 -11 0
-87 -12 0
-130 -10 0
-131 -11 0
-132 -12 0
-142 -10 0
-143 -11 0
-144 -12 0
-145 -10 0
-146 -11 0
-147 -12 0
-88 -13 0
-89 -14 0
-90 -15 0
-133 -13 0
-134 -14 0
-135 -15 0
-52 -16 0
-53 -17 0
-54 -18 0
-67 -16 0
-68 -17 0
-69 -18 0
-82 -16 0
-83 -17 0
-84 -18 0
-112 -16 0
-113 -17 0
-114 -18 0
-130 -16 0
-131 -17 0
-132 -18 0
-142 -16 0
-143 -17 0
-144 -18 0
-58 -19 0
-59 -20 0
-60 -21 0
-82 -19 0
-83 -20 0
-84 -21 0
-85 -19 0
-86 -20 0
-87 -21 0
-91 -19 0
-92 -20 0
-93 -21 0
-109 -19 0
-110 -20 0
-111 -21 0
-112 -19 0
-113 -20 0
-114 -21 0
-127 -19 0
-128 -20 0
-129 -21 0
-73 -22 0
-74 -23 0
-75 -24 0
-100 -22 0
-101 -23 0
-102 -24 0
-91 -25 0
-92 -26 0
-93 -27 0
-139 -25 0
-140 -26 0
-141 -27 0
-67 -28 0
-68 -29 0
-69 -30 0
-70 -28 0
-71 -29 0
-72 -30 0
-73 -28 0
-74 -29 0
-75 -30 0
-76 -28 0
-77 -29 0
-78 -30 0
-133 -28 0
-134 -29 0
-135 -30 0
-145 -28 0
-146 -29 0
-147 -30 0
-55 -31 0
-56 -32 0
-57 -33 0
-121 -31 0
-122 -32 0
-123 -33 0
-148 -31 0
-149 -32 0
-150 -33 0
-88 -34 0
-89 -35 0
-90 -36 0
-121 -34 0
-122 -35 0
-123 -36 0
-139 -34 0
-140 -35 0
-141 -36 0
-55 -37 0
-56 -38 0
-57 -39 0
-58 -37 0
-59 -38 0
-60 -39 0
-97 -37 0
-98 -38 0
-99 -39 0
-103 -37 0
-104 -38 0
-105 -39 0
-109 -37 0
-110 -38 0
-111 -39 0
-115 -37 0
-116 -38 0
-117 -39 0
-133 -37 0
-134 -38 0
-135 -39 0
-61 -40 0
-62 -41 0
-63 -42 0
-115 -40 0
-116 -41 0
-117 -42 0
-145 -40 0
-146 -41 0
-147 -42 0
-55 -43 0
-56 -44 0
-57 -45 0
-91 -43 0
-92 -44 0
-93 -45 0
-100 -43 0
-101 -44 0
-102 -45 0
-121 -43 0
-122 -44 0
-123 -45 0
-133 -43 0
-134 -44 0
-135 -45 0
-52 -46 0
-53 -47 0
-54 -48 0
-79 -46 0
-80 -47 0
-81 -48 0
-100 -46 0
-101 -47 0
-102 -48 0
-103 -46 0
-104 -47 0
-105 -48 0
-142 -46 0
-143 -47 0
-144 -48 0
-64 -49 0
-65 -50 0
-66 -51 0
-67 -49 0
-68 -50 0
-69 -51 0
-76 -49 0
-77 -50 0
-78 -51 0
-88 -49 0
-89 -50 0
-90 -51 0
-106 -49 0
-107 -50 0
-108 -51 0
-112 -49 0
-113 -50 0
-114 -51 0
-124 -49 0
-125 -50 0
-126 -51 0
-142 -49 0
-143 -50 0
-144 -51 0
-103 -52 0
-104 -53 0
-105 -54 0
-109 -52 0
-110 -53 0
-111 -54 0
-118 -55 0
-119 -56 0
-120 -57 0
-130 -55 0
-131 -56 0
-132 -57 0
-139 -55 0
-140 -56 0
-141 -57 0
-142 -55 0
-143 -56 0
-144 -57 0
-142 -58 0
-143 -59 0
-144 -60 0
-133 -64 0
-134 -65 0
-135 -66 0
-130 -67 0
-131 -68 0
-132 -69 0
-133 -67 0
-134 -68 0
-135 -69 0
-142 -67 0
-143 -68 0
-144 -69 0
-130 -70 0
-131 -71 0
-132 -72 0
-103 -73 0
-104 -74 0
-105 -75 0
-109 -73 0
-110 -74 0
-111 -75 0
-121 -73 0
-122 -74 0
-123 -75 0
-112 -76 0
-113 -77 0
-114 -78 0
-133 -76 0
-134 -77 0
-135 -78 0
-103 -79 0
-104 -80 0
-105 -81 0
-148 -79 0
-149 -80 0
-150 -81 0
-106 -82 0
-107 -83 0
-108 -84 0
-112 -82 0
-113 -83 0
-114 -84 0
-124 -82 0
-125 -83 0
-126 -84 0
-142 -82 0
-143 -83 0
-144 -84 0
-118 -85 0
-119 -86 0
-120 -87 0
-145 -85 0
-146 -86 0
-147 -87 0
-148 -85 0
-149 -86 0
-150 -87 0
-112 -88 0
-113 -89 0
-114 -90 0
-118 -88 0
-119 -89 0
-120 -90 0
-139 -88 0
-140 -89 0
-141 -90 0
-115 -91 0
-116 -92 0
-117 -93 0
-118 -91 0
-119 -92 0
-120 -93 0
-106 -94 0
-107 -95 0
-108 -96 0
-133 -94 0
-134 -95 0
-135 -96 0
-106 -97 0
-107 -98 0
-108 -99 0
-106 -100 0
-107 -101 0
-108 -102 0
-109 -100 0
-110 -101 0
-111 -102 0
-127 -100 0
-128 -101 0
-129 -102 0
-130 -100 0
-131 -101 0
-132 -102 0
